15
-1 50 74 96 43 31 42 83 67 40 21 8 62 50 24 
80 -1 46 97 28 81 41 75 55 45 53 82 41 97 4 
70 87 -1 15 84 44 21 8 7 37 82 89 82 58 73 
83 8 60 -1 11 30 28 33 96 53 86 52 38 34 87 
76 62 98 33 -1 44 5 15 80 50 11 9 25 3 23 
62 87 90 64 64 -1 72 11 36 82 72 47 81 64 40 
55 1 48 69 79 86 -1 73 76 92 74 95 17 93 79 
81 8 92 42 63 67 79 -1 22 34 64 21 74 48 5 
63 42 15 20 4 66 7 2 -1 91 77 38 48 9 68 
35 24 12 67 6 98 82 42 34 -1 55 84 87 7 56 
66 88 66 96 93 18 89 87 37 74 -1 87 9 95 96 
59 57 17 82 7 69 49 18 77 53 6 -1 53 76 13 
22 27 14 66 81 96 46 61 42 96 48 63 -1 33 96 
98 45 41 27 66 17 5 72 61 40 65 79 44 -1 88 
40 84 46 55 27 73 37 90 21 52 72 67 26 55 -1 
